Maximize
 obj: 287654 x0 + 343161 x1 + 297058 x2 + 415570 x3 + 611704 x4 + 478297 x5 + 207055 x6 + 211904 x7 + 143980 x8 + 568205 x9 + 588407 x10 + 556501 x11 + 214822 x12 + 267527 x13 + 249647 x14 + 222729 x15 + 328902 x16 + 265937 x17 + 611047 x18 + 639550 x19 + 478752 x20 + 326915 x21 + 427191 x22 + 311685 x23 + 103994 x24 + 93681 x25 + 861825 x26 + 1170268 x27 + 1078450 x28 + 100368 x29 + 81489 x30 + 529854 x31 + 744794 x32 + 718843 x33 + 227337 x34 + 302636 x35 + 221447 x36 + 124245 x37 + 152648 x38 + 119626 x39 + 187481 x40 
Subject To
 c1:  x9 +  x10 +  x12 +  x14 +  x27 +  x28  <= 1
 c2:  x14 +  x26 +  x33  <= 1
 c3:  x26 +  x28  <= 1
 c4:  x0  <= 1
 c5:  x5 +  x28  <= 1
 c6:  x0 +  x7 +  x28  <= 1
 c7:  x3 +  x10 +  x11  <= 1
 c8:  x20 +  x22  <= 1
 c9:  x12  <= 1
 c10:  x2 +  x9 +  x11 +  x16 +  x26  <= 1
 c11:  x0 +  x11 +  x12 +  x23  <= 1
 c12:  x18 +  x33  <= 1
 c13:  x5 +  x9 +  x27 +  x40  <= 1
 c14:  x12 +  x13 +  x14  <= 1
 c15:  x15 +  x16 +  x17  <= 1
 c16:  x34 +  x35 +  x36  <= 1
 c17:  x37 +  x38 +  x39  <= 1
 c18:  x26 +  x27 +  x28  <= 1
 c19:  x31 +  x32 +  x33  <= 1
 c20:  x31  <= 1
 c21:  x1 +  x21 +  x23 +  x28 +  x36 +  x38  <= 1
 c22:  x3 +  x8 +  x28 +  x32 +  x33  <= 1
 c23:  x31 +  x40  <= 1
 c24:  x35  <= 1
 c25:  x27 +  x31 +  x32  <= 1
 c26:  x31 +  x34 +  x35  <= 1
 c27:  x3 +  x4 +  x15 +  x17 +  x21 +  x22 +  x27  <= 1
 c28:  x11 +  x40  <= 1
 c29:  x3 +  x28  <= 1
 c30:  x18 +  x19 +  x20  <= 1
 c31:  x20 +  x31  <= 1
 c32:  x20  <= 1
 c33:  x6 +  x8 +  x26  <= 1
 c34:  x19  <= 1
 c35:  x14  <= 1
 c36:  x1  <= 1
 c37:  x31 +  x33  <= 1
 c38:  x19 +  x24 +  x26 +  x34 +  x40  <= 1
 c39:  x4 +  x22  <= 1
 c40:  x20 +  x26 +  x33  <= 1
 c41:  x0 +  x1  <= 1
 c42:  x12 +  x13 +  x14  <= 1
 c43:  x6 +  x7 +  x8  <= 1
 c44:  x23 +  x27  <= 1
 c45:  x9 +  x36  <= 1
 c46:  x21 +  x22 +  x23  <= 1
 c47:  x26  <= 1
 c48:  x19 +  x21 +  x32 +  x40  <= 1
 c49:  x3 +  x4 +  x5  <= 1
 c50:  x0 +  x1 +  x2  <= 1
 c51:  x4 +  x5 +  x37 +  x38  <= 1
 c52:  x2 +  x9 +  x32  <= 1
 c53:  x10 +  x26  <= 1
 c54:  x3  <= 1
 c55:  x11 +  x15 +  x16 +  x19 +  x27 +  x28 +  x29 +  x32  <= 1
 c56:  x33 +  x39  <= 1
 c57:  x9 +  x10 +  x11  <= 1
 c58:  x4 +  x6 +  x7 +  x22  <= 1
 c59:  x4 +  x9 +  x10 +  x18 +  x20 +  x28  <= 1
 c60:  x15 +  x32  <= 1
 c61:  x1 +  x3 +  x5 +  x27 +  x31  <= 1
 c62:  x32 +  x36  <= 1
 c63:  x0 +  x2 +  x16 +  x19 +  x26 +  x27 +  x28  <= 1
 c64:  x10 +  x18 +  x23  <= 1
 c65:  x13  <= 1
 c66:  x2  <= 1
 c67:  x17 +  x18 +  x19 +  x31 +  x33  <= 1
 c68:  x5 +  x20 +  x26 +  x27 +  x35 +  x37 +  x39  <= 1
 c69:  x4  <= 1
 c70:  x2 +  x28 +  x33  <= 1
 c71:  x10 +  x26 +  x34  <= 1
 c72:  x1 +  x17  <= 1
 c73:  x11 +  x13 +  x18 +  x26 +  x27 +  x32 +  x35  <= 1
 c74:  x27 +  x30 +  x34 +  x36  <= 1
 c75:  x5 +  x18 +  x25  <= 1
 c76:  x21 +  x40  <= 1
 c77:  x13 +  x27  <= 1
 c78:  x28 +  x40  <= 1
Bounds
 0 <= x0 <= 1
 0 <= x1 <= 1
 0 <= x2 <= 1
 0 <= x3 <= 1
 0 <= x4 <= 1
 0 <= x5 <= 1
 0 <= x6 <= 1
 0 <= x7 <= 1
 0 <= x8 <= 1
 0 <= x9 <= 1
 0 <= x10 <= 1
 0 <= x11 <= 1
 0 <= x12 <= 1
 0 <= x13 <= 1
 0 <= x14 <= 1
 0 <= x15 <= 1
 0 <= x16 <= 1
 0 <= x17 <= 1
 0 <= x18 <= 1
 0 <= x19 <= 1
 0 <= x20 <= 1
 0 <= x21 <= 1
 0 <= x22 <= 1
 0 <= x23 <= 1
 0 <= x24 <= 1
 0 <= x25 <= 1
 0 <= x26 <= 1
 0 <= x27 <= 1
 0 <= x28 <= 1
 0 <= x29 <= 1
 0 <= x30 <= 1
 0 <= x31 <= 1
 0 <= x32 <= 1
 0 <= x33 <= 1
 0 <= x34 <= 1
 0 <= x35 <= 1
 0 <= x36 <= 1
 0 <= x37 <= 1
 0 <= x38 <= 1
 0 <= x39 <= 1
 0 <= x40 <= 1
End